networks/zoo_26_32/zoo_26_32-lower.txt
Number of groups: 12
Flow 6: {2 13 0} {13 26 0} 
Flow 7: {3 2 0} {2 5 0} {5 12 0} 
Flow 11: {5 8 0} 
Flow 13: {5 13 0} 
Flow 14: {6 7 0} {7 5 0} {5 4 0} {4 17 0} 
Flow 16: {6 8 0} {8 21 0} 
Flow 18: {8 5 0} {5 2 0} {2 3 0} {3 16 0} 
Flow 20: {8 6 0} {6 19 0} 
Flow 24: {9 11 0} {11 8 0} {8 7 0} {7 20 0} 
Flow 25: {9 10 0} {10 12 0} {12 25 0} 
Flow 26: {11 12 0} 
Flow 29: {12 5 0} {5 7 0} {7 6 0} 
Time taken running everything: 0 seconds
