networks/zoo_26_32/zoo_26_32-lower.sol
<?xml version = "1.0" encoding="UTF-8" standalone="yes"?>
<CPLEXSolution version="1.2">
 <header
   problemName="networks/zoo_26_32/zoo_26_32-lower.lp"
   solutionName="incumbent"
   solutionIndex="-1"
   objectiveValue="12"
   solutionTypeValue="3"
   solutionTypeString="primal"
   solutionStatusValue="101"
   solutionStatusString="integer optimal solution"
   solutionMethodString="mip"
   primalFeasible="1"
   dualFeasible="1"
   MIPNodes="0"
   MIPIterations="23"
   writeLevel="3"/>
 <quality
   epInt="1.0000000000000001e-05"
   epRHS="9.9999999999999995e-07"
   maxIntInfeas="0"
   maxPrimalInfeas="0"
   maxX="1"
   maxSlack="1"/>
 <variables>
  <variable name="Y(6,13)" index="106" value="1"/>
  <variable name="Y(7,5)" index="117" value="1"/>
  <variable name="Y(11,5)" index="193" value="1"/>
  <variable name="Y(13,5)" index="231" value="1"/>
  <variable name="Y(14,4)" index="249" value="1"/>
  <variable name="Y(16,8)" index="291" value="1"/>
  <variable name="Y(18,3)" index="324" value="1"/>
  <variable name="Y(20,6)" index="365" value="1"/>
  <variable name="Y(24,7)" index="442" value="1"/>
  <variable name="Y(25,12)" index="466" value="1"/>
  <variable name="Y(26,11)" index="484" value="1"/>
  <variable name="Y(29,7)" index="537" value="1"/>
  <variable name="X(2,3,18)" index="625" value="1"/>
  <variable name="X(2,5,7)" index="646" value="1"/>
  <variable name="X(2,13,6)" index="677" value="1"/>
  <variable name="X(3,2,7)" index="710" value="1"/>
  <variable name="X(3,16,18)" index="753" value="1"/>
  <variable name="X(4,17,14)" index="781" value="1"/>
  <variable name="X(5,2,18)" index="817" value="1"/>
  <variable name="X(5,4,14)" index="845" value="1"/>
  <variable name="X(5,7,29)" index="892" value="1"/>
  <variable name="X(5,8,11)" index="906" value="1"/>
  <variable name="X(5,12,7)" index="934" value="1"/>
  <variable name="X(5,13,13)" index="972" value="1"/>
  <variable name="X(6,7,14)" index="1005" value="1"/>
  <variable name="X(6,8,16)" index="1039" value="1"/>
  <variable name="X(6,19,20)" index="1075" value="1"/>
  <variable name="X(7,5,14)" index="1101" value="1"/>
  <variable name="X(7,6,29)" index="1148" value="1"/>
  <variable name="X(7,20,24)" index="1175" value="1"/>
  <variable name="X(8,5,18)" index="1201" value="1"/>
  <variable name="X(8,6,20)" index="1235" value="1"/>
  <variable name="X(8,7,24)" index="1271" value="1"/>
  <variable name="X(8,21,16)" index="1295" value="1"/>
  <variable name="X(9,10,25)" index="1336" value="1"/>
  <variable name="X(9,11,24)" index="1367" value="1"/>
  <variable name="X(10,12,25)" index="1400" value="1"/>
  <variable name="X(11,8,24)" index="1431" value="1"/>
  <variable name="X(11,12,26)" index="1465" value="1"/>
  <variable name="X(12,5,29)" index="1500" value="1"/>
  <variable name="X(12,25,25)" index="1528" value="1"/>
  <variable name="X(13,26,6)" index="1541" value="1"/>
 </variables>
</CPLEXSolution>
